# Opacity and scattering matrix file for species_99
# Please do not forget to cite in your publications theo riginal paper of these optical constant measurements
# Made with the DSHARP_OPAC package by Cornelis Dullemond & Til Birnstiel
# using either the bhmie.py Mie code of Bohren and Huffman (python version by Cornelis Dullemond,
# or a F90 version by Til Birnstiel, both after the original bhmie.f code by Bruce Draine)
# Grain size =  1.000000e-01 cm
# Material density =  1.675 g/cm^3
1
3
199

 8.700000e+02  2.613166e+00  8.298607e+00  7.129913e-01
 1.000000e+03  2.486576e+00  9.486759e+00  6.096874e-01
 1.300000e+03  2.036035e+00  8.966521e+00  4.619260e-01

 0.000000e+00
 9.090909e-01
 1.818182e+00
 2.727273e+00
 3.636364e+00
 4.545455e+00
 5.454545e+00
 6.363636e+00
 7.272727e+00
 8.181818e+00
 9.090909e+00
 1.000000e+01
 1.090909e+01
 1.181818e+01
 1.272727e+01
 1.363636e+01
 1.454545e+01
 1.545455e+01
 1.636364e+01
 1.727273e+01
 1.818182e+01
 1.909091e+01
 2.000000e+01
 2.090909e+01
 2.181818e+01
 2.272727e+01
 2.363636e+01
 2.454545e+01
 2.545455e+01
 2.636364e+01
 2.727273e+01
 2.818182e+01
 2.909091e+01
 3.000000e+01
 3.090909e+01
 3.181818e+01
 3.272727e+01
 3.363636e+01
 3.454545e+01
 3.545455e+01
 3.636364e+01
 3.727273e+01
 3.818182e+01
 3.909091e+01
 4.000000e+01
 4.090909e+01
 4.181818e+01
 4.272727e+01
 4.363636e+01
 4.454545e+01
 4.545455e+01
 4.636364e+01
 4.727273e+01
 4.818182e+01
 4.909091e+01
 5.000000e+01
 5.090909e+01
 5.181818e+01
 5.272727e+01
 5.363636e+01
 5.454545e+01
 5.545455e+01
 5.636364e+01
 5.727273e+01
 5.818182e+01
 5.909091e+01
 6.000000e+01
 6.090909e+01
 6.181818e+01
 6.272727e+01
 6.363636e+01
 6.454545e+01
 6.545455e+01
 6.636364e+01
 6.727273e+01
 6.818182e+01
 6.909091e+01
 7.000000e+01
 7.090909e+01
 7.181818e+01
 7.272727e+01
 7.363636e+01
 7.454545e+01
 7.545455e+01
 7.636364e+01
 7.727273e+01
 7.818182e+01
 7.909091e+01
 8.000000e+01
 8.090909e+01
 8.181818e+01
 8.272727e+01
 8.363636e+01
 8.454545e+01
 8.545455e+01
 8.636364e+01
 8.727273e+01
 8.818182e+01
 8.909091e+01
 9.000000e+01
 9.090909e+01
 9.181818e+01
 9.272727e+01
 9.363636e+01
 9.454545e+01
 9.545455e+01
 9.636364e+01
 9.727273e+01
 9.818182e+01
 9.909091e+01
 1.000000e+02
 1.009091e+02
 1.018182e+02
 1.027273e+02
 1.036364e+02
 1.045455e+02
 1.054545e+02
 1.063636e+02
 1.072727e+02
 1.081818e+02
 1.090909e+02
 1.100000e+02
 1.109091e+02
 1.118182e+02
 1.127273e+02
 1.136364e+02
 1.145455e+02
 1.154545e+02
 1.163636e+02
 1.172727e+02
 1.181818e+02
 1.190909e+02
 1.200000e+02
 1.209091e+02
 1.218182e+02
 1.227273e+02
 1.236364e+02
 1.245455e+02
 1.254545e+02
 1.263636e+02
 1.272727e+02
 1.281818e+02
 1.290909e+02
 1.300000e+02
 1.309091e+02
 1.318182e+02
 1.327273e+02
 1.336364e+02
 1.345455e+02
 1.354545e+02
 1.363636e+02
 1.372727e+02
 1.381818e+02
 1.390909e+02
 1.400000e+02
 1.409091e+02
 1.418182e+02
 1.427273e+02
 1.436364e+02
 1.445455e+02
 1.454545e+02
 1.463636e+02
 1.472727e+02
 1.481818e+02
 1.490909e+02
 1.500000e+02
 1.509091e+02
 1.518182e+02
 1.527273e+02
 1.536364e+02
 1.545455e+02
 1.554545e+02
 1.563636e+02
 1.572727e+02
 1.581818e+02
 1.590909e+02
 1.600000e+02
 1.609091e+02
 1.618182e+02
 1.627273e+02
 1.636364e+02
 1.645455e+02
 1.654545e+02
 1.663636e+02
 1.672727e+02
 1.681818e+02
 1.690909e+02
 1.700000e+02
 1.709091e+02
 1.718182e+02
 1.727273e+02
 1.736364e+02
 1.745455e+02
 1.754545e+02
 1.763636e+02
 1.772727e+02
 1.781818e+02
 1.790909e+02
 1.800000e+02

 2.989826e+01  0.000000e+00  2.989826e+01  2.989826e+01  0.000000e+00  2.989826e+01
 2.977682e+01  1.103455e-02  2.977682e+01  2.977681e+01  2.493252e-02  2.977681e+01
 2.941502e+01  4.372608e-02  2.941502e+01  2.941483e+01  9.868463e-02  2.941483e+01
 2.882037e+01  9.685542e-02  2.882037e+01  2.881938e+01  2.181659e-01  2.881938e+01
 2.800511e+01  1.684469e-01  2.800511e+01  2.800204e+01  3.783764e-01  2.800204e+01
 2.698587e+01  2.558499e-01  2.698587e+01  2.697858e+01  5.726255e-01  2.697858e+01
 2.578319e+01  3.558479e-01  2.578319e+01  2.576854e+01  7.928233e-01  2.576854e+01
 2.442087e+01  4.647892e-01  2.442087e+01  2.439472e+01  1.029831e+00  2.439472e+01
 2.292536e+01  5.787338e-01  2.292536e+01  2.288263e+01  1.273854e+00  2.288263e+01
 2.132494e+01  6.936096e-01  2.132494e+01  2.125976e+01  1.514859e+00  2.125976e+01
 1.964898e+01  8.053707e-01  1.964898e+01  1.955495e+01  1.742997e+00  1.955495e+01
 1.792715e+01  9.101505e-01  1.792715e+01  1.779763e+01  1.949010e+00  1.779763e+01
 1.618862e+01  1.004404e+00  1.618862e+01  1.601714e+01  2.124606e+00  1.601714e+01
 1.446140e+01  1.085030e+00  1.446140e+01  1.424201e+01  2.262787e+00  1.424201e+01
 1.277163e+01  1.149478e+00  1.277163e+01  1.249930e+01  2.358114e+00  1.249930e+01
 1.114301e+01  1.195818e+00  1.114301e+01  1.081404e+01  2.406894e+00  1.081404e+01
 9.596385e+00  1.222791e+00  9.596385e+00  9.208708e+00  2.407298e+00  9.208708e+00
 8.149341e+00  1.229829e+00  8.149341e+00  7.702766e+00  2.359381e+00  7.702766e+00
 6.815989e+00  1.217039e+00  6.815989e+00  6.312379e+00  2.265036e+00  6.312379e+00
 5.606841e+00  1.185172e+00  5.606841e+00  5.050172e+00  2.127862e+00  5.050172e+00
 4.528809e+00  1.135556e+00  4.528809e+00  3.925117e+00  1.952967e+00  3.925117e+00
 3.585309e+00  1.070020e+00  3.585309e+00  2.942534e+00  1.746710e+00  2.942534e+00
 2.776461e+00  9.907936e-01  2.776461e+00  2.104180e+00  1.516407e+00  2.104180e+00
 2.099369e+00  9.004055e-01  2.099369e+00  1.408447e+00  1.270000e+00  1.408447e+00
 1.548476e+00  8.015711e-01  1.548476e+00  8.506349e-01  1.015718e+00  8.506349e-01
 1.115958e+00  6.970848e-01  1.115958e+00  4.233035e-01  7.617403e-01  4.233035e-01
 7.921520e-01  5.897161e-01  7.921520e-01  1.166745e-01  5.158748e-01  1.166745e-01
 5.660067e-01  4.821169e-01  5.660067e-01 -8.092027e-02  2.852697e-01 -8.092027e-02
 4.255183e-01  3.767408e-01  4.255183e-01 -1.825678e-01  7.616526e-02 -1.825678e-01
 3.581586e-01  2.757787e-01  3.581586e-01 -2.022955e-01 -1.063025e-01 -2.022955e-01
 3.512714e-01  1.811115e-01  3.512714e-01 -1.545997e-01 -2.582424e-01 -1.545997e-01
 3.924289e-01  9.427952e-02  3.924289e-01 -5.399756e-02 -3.770889e-01 -5.399756e-02
 4.697427e-01  1.646961e-02  4.697427e-01  8.538563e-02 -4.616234e-01  8.538563e-02
 5.721217e-01 -5.148296e-02  5.721217e-01  2.501830e-01 -5.119387e-01  2.501830e-01
 6.894769e-01 -1.090787e-01  6.894769e-01  4.280973e-01 -5.293515e-01  4.280973e-01
 8.128705e-01 -1.561274e-01  8.128705e-01  6.081507e-01 -5.162708e-01  6.081507e-01
 9.346135e-01 -1.927134e-01  9.346135e-01  7.808708e-01 -4.760301e-01  7.808708e-01
 1.048313e+00 -2.191562e-01  1.048313e+00  9.384111e-01 -4.126936e-01  9.384111e-01
 1.148878e+00 -2.359678e-01  1.148878e+00  1.074607e+00 -3.308463e-01  1.074607e+00
 1.232482e+00 -2.438114e-01  1.232482e+00  1.184975e+00 -2.353790e-01  1.184975e+00
 1.296500e+00 -2.434616e-01  1.296500e+00  1.266651e+00 -1.312768e-01  1.266651e+00
 1.339412e+00 -2.357695e-01  1.339412e+00  1.318290e+00 -2.342047e-02  1.318290e+00
 1.360696e+00 -2.216325e-01  1.360696e+00  1.339920e+00  8.359127e-02  1.339920e+00
 1.360704e+00 -2.019701e-01  1.360704e+00  1.332771e+00  1.855943e-01  1.332771e+00
 1.340526e+00 -1.777057e-01  1.340526e+00  1.299077e+00  2.789802e-01  1.299077e+00
 1.301861e+00 -1.497534e-01  1.301861e+00  1.241873e+00  3.607853e-01  1.241873e+00
 1.246880e+00 -1.190098e-01  1.246880e+00  1.164785e+00  4.287452e-01  1.164785e+00
 1.178104e+00 -8.634896e-02  1.178104e+00  1.071824e+00  4.813168e-01  1.071824e+00
 1.098276e+00 -5.261989e-02  1.098276e+00  9.671917e-01  5.176699e-01  9.671917e-01
 1.010257e+00 -1.864465e-02  1.010257e+00  8.551043e-01  5.376503e-01  8.551043e-01
 9.169199e-01  1.478355e-02  9.169199e-01  7.396361e-01  5.417213e-01  7.396361e-01
 8.210657e-01  4.690348e-02  8.210657e-01  6.245869e-01  5.308861e-01  6.245869e-01
 7.253431e-01  7.699099e-02  7.253431e-01  5.133756e-01  5.065971e-01  5.133756e-01
 6.321856e-01  1.043664e-01  6.321856e-01  4.089595e-01  4.706575e-01  4.089595e-01
 5.437584e-01  1.284041e-01  5.437584e-01  3.137807e-01  4.251202e-01  3.137807e-01
 4.619176e-01  1.485449e-01  4.619176e-01  2.297354e-01  3.721879e-01  2.297354e-01
 3.881815e-01  1.643088e-01  3.881815e-01  1.581664e-01  3.141192e-01  1.581664e-01
 3.237123e-01  1.753097e-01  3.237123e-01  9.987502e-02  2.531426e-01  9.987502e-02
 2.693088e-01  1.812688e-01  2.693088e-01  5.515038e-02  1.913825e-01  5.515038e-02
 2.254088e-01  1.820278e-01  2.254088e-01  2.381162e-02  1.307977e-01  2.381162e-02
 1.921020e-01  1.775586e-01  1.921020e-01  5.261200e-03  7.313293e-02  5.261200e-03
 1.691500e-01  1.679709e-01  1.691500e-01 -1.454372e-03  1.988457e-02 -1.454372e-03
 1.560159e-01  1.535144e-01  1.560159e-01  2.420820e-03 -2.772067e-02  2.420820e-03
 1.518992e-01  1.345773e-01  1.518992e-01  1.541965e-02 -6.873523e-02  1.541965e-02
 1.557776e-01  1.116797e-01  1.557776e-01  3.591935e-02 -1.024894e-01  3.591935e-02
 1.664527e-01  8.546138e-02  1.664527e-01  6.220676e-02 -1.285814e-01  6.220676e-02
 1.825993e-01  5.666522e-02  1.825993e-01  9.254001e-02 -1.468601e-01  9.254001e-02
 2.028153e-01  2.611653e-02  2.028153e-01  1.252051e-01 -1.574029e-01  1.252051e-01
 2.256733e-01 -5.301536e-03  2.256733e-01  1.585663e-01 -1.604901e-01  1.585663e-01
 2.497692e-01 -3.667492e-02  2.497692e-01  1.911103e-01 -1.565773e-01  1.911103e-01
 2.737690e-01 -6.708717e-02  2.737690e-01  2.214826e-01 -1.462676e-01  2.214826e-01
 2.964506e-01 -9.564840e-02  2.964506e-01  2.485163e-01 -1.302843e-01  2.485163e-01
 3.167405e-01 -1.215235e-01  3.167405e-01  2.712534e-01 -1.094448e-01  2.712534e-01
 3.337431e-01 -1.439589e-01  3.337431e-01  2.889585e-01 -8.463632e-02  2.889585e-01
 3.467633e-01 -1.623058e-01  3.467633e-01  3.011247e-01 -5.679398e-02  3.011247e-01
 3.553201e-01 -1.760415e-01  3.553201e-01  3.074724e-01 -2.688020e-02  3.074724e-01
 3.591525e-01 -1.847846e-01  3.591525e-01  3.079417e-01  4.133692e-03  3.079417e-01
 3.582166e-01 -1.883075e-01  3.582166e-01  3.026788e-01  3.528470e-02  3.026788e-01
 3.526749e-01 -1.865428e-01  3.526749e-01  2.920162e-01  6.563447e-02  2.920162e-01
 3.428778e-01 -1.795854e-01  3.428778e-01  2.764500e-01  9.428505e-02  2.764500e-01
 3.293391e-01 -1.676893e-01  3.293391e-01  2.566119e-01  1.203945e-01  2.566119e-01
 3.127056e-01 -1.512602e-01  3.127056e-01  2.332404e-01  1.431924e-01  2.332404e-01
 2.937230e-01 -1.308429e-01  2.937230e-01  2.071491e-01  1.619957e-01  2.071491e-01
 2.731991e-01 -1.071055e-01  2.731991e-01  1.791956e-01  1.762246e-01  1.791956e-01
 2.519656e-01 -8.081973e-02  2.519656e-01  1.502505e-01  1.854174e-01  1.502505e-01
 2.308411e-01 -5.283753e-02  2.308411e-01  1.211686e-01  1.892458e-01  1.211686e-01
 2.105953e-01 -2.406615e-02  2.105953e-01  9.276157e-02  1.875273e-01  9.276157e-02
 1.919178e-01  4.559395e-03  1.919178e-01  6.577490e-02  1.802368e-01  6.577490e-02
 1.753901e-01  3.210499e-02  1.753901e-01  4.086803e-02  1.675135e-01  4.086803e-02
 1.614650e-01  5.766664e-02  1.614650e-01  1.859879e-02  1.496650e-01  1.859879e-02
 1.504515e-01  8.039964e-02  1.504515e-01 -5.878802e-04  1.271661e-01 -5.878802e-04
 1.425071e-01  9.954678e-02  1.425071e-01 -1.636678e-02  1.006520e-01 -1.636678e-02
 1.376375e-01  1.144647e-01  1.376375e-01 -2.853512e-02  7.090583e-02 -2.853512e-02
 1.357034e-01  1.246479e-01  1.357034e-01 -3.701137e-02  3.883926e-02 -3.701137e-02
 1.364343e-01  1.297484e-01  1.364343e-01 -4.183051e-02  5.467767e-03 -4.183051e-02
 1.394475e-01  1.295920e-01  1.394475e-01 -4.313645e-02 -2.812038e-02 -4.313645e-02
 1.442726e-01  1.241886e-01  1.442726e-01 -4.117192e-02 -6.079996e-02 -4.117192e-02
 1.503798e-01  1.137365e-01  1.503798e-01 -3.626658e-02 -9.144849e-02 -3.626658e-02
 1.572100e-01  9.862030e-02  1.572100e-01 -2.882364e-02 -1.189883e-01 -2.882364e-02
 1.642056e-01  7.940183e-02  1.642056e-01 -1.930570e-02 -1.424293e-01 -1.930570e-02
 1.708405e-01  5.680387e-02  1.708405e-01 -8.220034e-03 -1.609106e-01 -8.220034e-03
 1.766477e-01  3.168703e-02  1.766477e-01  3.896415e-03 -1.737388e-01  3.896415e-03
 1.812428e-01  5.020232e-03  1.812428e-01  1.649192e-02 -1.804210e-01  1.649192e-02
 1.843422e-01 -2.215446e-02  1.843422e-01  2.901475e-02 -1.806914e-01  2.901475e-02
 1.857762e-01 -4.876132e-02  1.857762e-01  4.092766e-02 -1.745281e-01  4.092766e-02
 1.854937e-01 -7.373341e-02  1.854937e-01  5.172196e-02 -1.621609e-01  5.172196e-02
 1.835618e-01 -9.605624e-02  1.835618e-01  6.093114e-02 -1.440678e-01  6.093114e-02
 1.801570e-01 -1.148107e-01  1.801570e-01  6.814387e-02 -1.209606e-01  6.814387e-02
 1.755511e-01 -1.292131e-01  1.755511e-01  7.301610e-02 -9.375933e-02  7.301610e-02
 1.700908e-01 -1.386509e-01  1.700908e-01  7.528216e-02 -6.355634e-02  7.528216e-02
 1.641740e-01 -1.427115e-01  1.641740e-01  7.476434e-02 -3.157236e-02  7.476434e-02
 1.582220e-01 -1.412027e-01  1.582220e-01  7.138065e-02  8.951203e-04  7.138065e-02
 1.526518e-01 -1.341640e-01  1.526518e-01  6.515021e-02  3.252766e-02  6.515021e-02
 1.478479e-01 -1.218672e-01  1.478479e-01  5.619588e-02  6.204383e-02  5.619588e-02
 1.441371e-01 -1.048063e-01  1.441371e-01  4.474360e-02  8.825622e-02  4.474360e-02
 1.417662e-01 -8.367692e-02  1.417662e-01  3.111806e-02  1.101249e-01  3.111806e-02
 1.408859e-01 -5.934593e-02  1.408859e-01  1.573449e-02  1.268043e-01  1.573449e-02
 1.415401e-01 -3.281219e-02  1.415401e-01 -9.136154e-04  1.376813e-01 -9.136154e-04
 1.436625e-01 -5.161109e-03  1.436625e-01 -1.827064e-02  1.424025e-01 -1.827064e-02
 1.470799e-01  2.248556e-02  1.470799e-01 -3.573860e-02  1.408887e-01 -3.573860e-02
 1.515228e-01  4.902186e-02  1.515228e-01 -5.269985e-02  1.333369e-01 -5.269985e-02
 1.566423e-01  7.340901e-02  1.566423e-01 -6.854200e-02  1.202078e-01 -6.854200e-02
 1.620316e-01  9.472349e-02  1.620316e-01 -8.268383e-02  1.022012e-01 -8.268383e-02
 1.672520e-01  1.121991e-01  1.672520e-01 -9.460123e-02  8.021981e-02 -9.460123e-02
 1.718605e-01  1.252608e-01  1.718605e-01 -1.038516e-01  5.532277e-02 -1.038516e-01
 1.754378e-01  1.335488e-01  1.754378e-01 -1.100955e-01  2.867257e-02 -1.100955e-01
 1.776152e-01  1.369313e-01  1.776152e-01 -1.131141e-01  1.477100e-03 -1.131141e-01
 1.780977e-01  1.355049e-01  1.780977e-01 -1.128217e-01 -2.506950e-02 -1.128217e-01
 1.766825e-01  1.295842e-01  1.766825e-01 -1.092712e-01 -4.984424e-02 -1.092712e-01
 1.732714e-01  1.196788e-01  1.732714e-01 -1.026539e-01 -7.184787e-02 -1.026539e-01
 1.678764e-01  1.064619e-01  1.678764e-01 -9.329160e-02 -9.024988e-02 -9.329160e-02
 1.606186e-01  9.073008e-02  1.606186e-01 -8.162138e-02 -1.044238e-01 -8.162138e-02
 1.517185e-01  7.335791e-02  1.517185e-01 -6.817499e-02 -1.139706e-01 -6.817499e-02
 1.414821e-01  5.524958e-02  1.414821e-01 -5.355223e-02 -1.187301e-01 -5.355223e-02
 1.302796e-01  3.729045e-02  1.302796e-01 -3.839065e-02 -1.187786e-01 -3.839065e-02
 1.185213e-01  2.030130e-02  1.185213e-01 -2.333284e-02 -1.144147e-01 -2.333284e-02
 1.066310e-01  4.997888e-03  1.066310e-01 -8.993340e-03 -1.061335e-01 -8.993340e-03
 9.501946e-02 -8.041995e-03  9.501946e-02  4.072968e-03 -9.459088e-02  4.072968e-03
 8.405845e-02 -1.840223e-02  8.405845e-02  1.539907e-02 -8.056084e-02  1.539907e-02
 7.405943e-02 -2.584159e-02  7.405943e-02  2.462888e-02 -6.488782e-02  2.462888e-02
 6.525635e-02 -3.029611e-02  6.525635e-02  3.153368e-02 -4.843721e-02  3.153368e-02
 5.779485e-02 -3.187065e-02  5.779485e-02  3.602089e-02 -3.204686e-02  3.602089e-02
 5.172831e-02 -3.082057e-02  5.172831e-02  3.813453e-02 -1.648235e-02  3.813453e-02
 4.702106e-02 -2.752495e-02  4.702106e-02  3.804740e-02 -2.398430e-03  3.804740e-02
 4.355835e-02 -2.245326e-02  4.355835e-02  3.604524e-02  9.691338e-03  3.604524e-02
 4.116244e-02 -1.612778e-02  4.116244e-02  3.250403e-02  1.943526e-02  3.250403e-02
 3.961348e-02 -9.084398e-03  3.961348e-02  2.786180e-02  2.665373e-02  2.786180e-02
 3.867354e-02 -1.834167e-03  3.867354e-02  2.258673e-02  3.133877e-02  2.258673e-02
 3.811203e-02  5.171682e-03  3.811203e-02  1.714362e-02  3.364338e-02  1.714362e-02
 3.773035e-02  1.157125e-02  3.773035e-02  1.196101e-02  3.386178e-02  1.196101e-02
 3.738401e-02  1.711413e-02  3.738401e-02  7.401048e-03  3.240208e-02  7.401048e-03
 3.700020e-02  2.167496e-02  3.700020e-02  3.734040e-03  2.975345e-02  3.734040e-03
 3.658958e-02  2.525763e-02  3.658958e-02  1.119602e-03  2.644987e-02  1.119602e-03
 3.625105e-02  2.799023e-02  3.625105e-02 -4.045366e-04  2.303306e-02 -4.045366e-04
 3.616898e-02  3.011104e-02  3.616898e-02 -9.251797e-04  2.001659e-02 -9.251797e-04
 3.660299e-02  3.194693e-02  3.660299e-02 -6.476208e-04  1.785366e-02 -6.476208e-04
 3.787080e-02  3.388560e-02  3.787080e-02  1.187212e-04  1.691004e-02  1.187212e-04
 4.032514e-02  3.634369e-02  4.032514e-02  9.820277e-04  1.744387e-02  9.820277e-04
 4.432652e-02  3.973305e-02  4.432652e-02  1.495718e-03  1.959306e-02  1.495718e-03
 5.021353e-02  4.442732e-02  5.021353e-02  1.190153e-03  2.337083e-02  1.190153e-03
 5.827291e-02  5.073119e-02  5.827291e-02 -3.937293e-04  2.866922e-02 -3.937293e-04
 6.871159e-02  5.885429e-02  6.871159e-02 -3.671096e-03  3.527009e-02 -3.671096e-03
 8.163273e-02  6.889147e-02  8.163273e-02 -8.982455e-03  4.286237e-02 -8.982455e-03
 9.701764e-02  8.081065e-02  9.701764e-02 -1.656750e-02  5.106446e-02 -1.656750e-02
 1.147151e-01  9.444902e-02  1.147151e-01 -2.654532e-02  5.944991e-02 -2.654532e-02
 1.344392e-01  1.095178e-01  1.344392e-01 -3.890225e-02  6.757489e-02 -3.890225e-02
 1.557754e-01  1.256152e-01  1.557754e-01 -5.348818e-02  7.500539e-02 -5.348818e-02
 1.781956e-01  1.422463e-01  1.781956e-01 -7.002154e-02  8.134286e-02 -7.002154e-02
 2.010813e-01  1.588494e-01  2.010813e-01 -8.810260e-02  8.624649e-02 -8.810260e-02
 2.237520e-01  1.748265e-01  2.237520e-01 -1.072341e-01  8.945116e-02 -1.072341e-01
 2.454999e-01  1.895753e-01  2.454999e-01 -1.268479e-01  9.078017e-02 -1.268479e-01
 2.656255e-01  2.025224e-01  2.656255e-01 -1.463359e-01  9.015223e-02 -1.463359e-01
 2.834746e-01  2.131542e-01  2.834746e-01 -1.650830e-01  8.758268e-02 -1.650830e-01
 2.984722e-01  2.210442e-01  2.984722e-01 -1.825003e-01  8.317910e-02 -1.825003e-01
 3.101533e-01  2.258751e-01  3.101533e-01 -1.980560e-01  7.713206e-02 -1.980560e-01
 3.181860e-01  2.274541e-01  3.181860e-01 -2.113023e-01  6.970161e-02 -2.113023e-01
 3.223878e-01  2.257213e-01  3.223878e-01 -2.218970e-01  6.120079e-02 -2.218970e-01
 3.227331e-01  2.207502e-01  3.227331e-01 -2.296179e-01  5.197711e-02 -2.296179e-01
 3.193512e-01  2.127408e-01  3.193512e-01 -2.343701e-01  4.239323e-02 -2.343701e-01
 3.125159e-01  2.020060e-01  3.125159e-01 -2.361851e-01  3.280807e-02 -2.361851e-01
 3.026270e-01  1.889518e-01  3.026270e-01 -2.352132e-01  2.355918e-02 -2.352132e-01
 2.901846e-01  1.740541e-01  2.901846e-01 -2.317086e-01  1.494743e-02 -2.317086e-01
 2.757601e-01  1.578315e-01  2.757601e-01 -2.260103e-01  7.224589e-03 -2.260103e-01
 2.599622e-01  1.408181e-01  2.599622e-01 -2.185183e-01  5.842566e-04 -2.185183e-01
 2.434046e-01  1.235368e-01  2.434046e-01 -2.096688e-01 -4.843658e-03 -2.096688e-01
 2.266741e-01  1.064745e-01  2.266741e-01 -1.999085e-01 -8.994821e-03 -1.999085e-01
 2.103024e-01  9.006192e-02  2.103024e-01 -1.896710e-01 -1.186899e-02 -1.896710e-01
 1.947444e-01  7.465766e-02  1.947444e-01 -1.793563e-01 -1.352544e-02 -1.793563e-01
 1.803620e-01  6.053858e-02  1.803620e-01 -1.693145e-01 -1.407587e-02 -1.693145e-01
 1.674164e-01  4.789575e-02  1.674164e-01 -1.598350e-01 -1.367519e-02 -1.598350e-01
 1.560675e-01  3.683670e-02  1.560675e-01 -1.511410e-01 -1.251090e-02 -1.511410e-01
 1.463810e-01  2.739292e-02  1.463810e-01 -1.433896e-01 -1.079162e-02 -1.433896e-01
 1.383413e-01  1.953218e-02  1.383413e-01 -1.366766e-01 -8.735369e-03 -1.366766e-01
 1.318699e-01  1.317421e-02  1.318699e-01 -1.310462e-01 -6.558007e-03 -1.310462e-01
 1.268473e-01  8.208532e-03  1.268473e-01 -1.265028e-01 -4.462462e-03 -1.265028e-01
 1.231351e-01  4.512900e-03  1.231351e-01 -1.230243e-01 -2.628989e-03 -1.230243e-01
 1.205985e-01  1.970911e-03  1.205985e-01 -1.205764e-01 -1.206836e-03 -1.205764e-01
 1.191258e-01  4.873327e-04  1.191258e-01 -1.191244e-01 -3.075353e-04 -1.191244e-01
 1.186434e-01  0.000000e+00  1.186434e-01 -1.186434e-01  0.000000e+00 -1.186434e-01

 2.519441e+01  0.000000e+00  2.519441e+01  2.519441e+01  0.000000e+00  2.519441e+01
 2.512077e+01 -8.978493e-03  2.512077e+01  2.512076e+01  2.057911e-02  2.512076e+01
 2.490108e+01 -3.563264e-02  2.490108e+01  2.490092e+01  8.168249e-02  2.490092e+01
 2.453903e+01 -7.912847e-02  2.453903e+01  2.453824e+01  1.814304e-01  2.453824e+01
 2.404067e+01 -1.381091e-01  2.404067e+01  2.403818e+01  3.167624e-01  2.403818e+01
 2.341421e+01 -2.107428e-01  2.341421e+01  2.340826e+01  4.835431e-01  2.340826e+01
 2.266986e+01 -2.947879e-01  2.266986e+01  2.265784e+01  6.767050e-01  2.265784e+01
 2.181955e+01 -3.876711e-01  2.181955e+01  2.179793e+01  8.904214e-01  2.179793e+01
 2.087663e+01 -4.865765e-01  2.087663e+01  2.084098e+01  1.118304e+00  2.084098e+01
 1.985551e+01 -5.885427e-01  1.985551e+01  1.980057e+01  1.353620e+00  1.980057e+01
 1.877135e+01 -6.905618e-01  1.877135e+01  1.869117e+01  1.589511e+00  1.869117e+01
 1.763967e+01 -7.896791e-01  1.763967e+01  1.752783e+01  1.819221e+00  1.752783e+01
 1.647604e+01 -8.830879e-01  1.647604e+01  1.632585e+01  2.036311e+00  1.632585e+01
 1.529567e+01 -9.682165e-01  1.529567e+01  1.510051e+01  2.234858e+00  1.510051e+01
 1.411315e+01 -1.042805e+00  1.411315e+01  1.386676e+01  2.409636e+00  1.386676e+01
 1.294213e+01 -1.104966e+00  1.294213e+01  1.263896e+01  2.556260e+00  1.263896e+01
 1.179511e+01 -1.153236e+00  1.179511e+01  1.143060e+01  2.671305e+00  1.143060e+01
 1.068319e+01 -1.186602e+00  1.068319e+01  1.025412e+01  2.752379e+00  1.025412e+01
 9.615977e+00 -1.204514e+00  9.615977e+00  9.120658e+00  2.798170e+00  9.120658e+00
 8.601446e+00 -1.206887e+00  8.601446e+00  8.039962e+00  2.808435e+00  8.039962e+00
 7.645910e+00 -1.194075e+00  7.645910e+00  7.020230e+00  2.783973e+00  7.020230e+00
 6.754023e+00 -1.166839e+00  6.754023e+00  6.068055e+00  2.726542e+00  6.068055e+00
 5.928829e+00 -1.126303e+00  5.928829e+00  5.188391e+00  2.638759e+00  5.188391e+00
 5.171852e+00 -1.073890e+00  5.171852e+00  4.384561e+00  2.523972e+00  4.384561e+00
 4.483227e+00 -1.011266e+00  4.483227e+00  3.658305e+00  2.386101e+00  3.658305e+00
 3.861856e+00 -9.402663e-01  3.861856e+00  3.009857e+00  2.229482e+00  3.009857e+00
 3.305580e+00 -8.628288e-01  3.305580e+00  2.438068e+00  2.058692e+00  2.438068e+00
 2.811376e+00 -7.809251e-01  2.811376e+00  1.940535e+00  1.878380e+00  1.940535e+00
 2.375545e+00 -6.964980e-01  2.375545e+00  1.513770e+00  1.693106e+00  1.513770e+00
 1.993912e+00 -6.114039e-01  1.993912e+00  1.153372e+00  1.507184e+00  1.153372e+00
 1.662005e+00 -5.273648e-01  1.662005e+00  8.542167e-01  1.324561e+00  8.542167e-01
 1.375227e+00 -4.459290e-01  1.375227e+00  6.106466e-01  1.148698e+00  6.106466e-01
 1.129004e+00 -3.684431e-01  1.129004e+00  4.166587e-01  9.824943e-01  4.166587e-01
 9.189145e-01 -2.960335e-01  9.189145e-01  2.660883e-01  8.282300e-01  2.660883e-01
 7.407879e-01 -2.295994e-01  7.407879e-01  1.527790e-01  6.875387e-01  1.527790e-01
 5.907810e-01 -1.698143e-01  5.907810e-01  7.073780e-02  5.614102e-01  7.073780e-02
 4.654259e-01 -1.171366e-01  4.654259e-01  1.427060e-02  4.502184e-01  1.427060e-02
 3.616541e-01 -7.182643e-02  3.616541e-01 -2.190413e-02  3.537723e-01 -2.190413e-02
 2.767973e-01 -3.396826e-02  2.767973e-01 -4.256531e-02  2.713873e-01 -4.256531e-02
 2.085691e-01 -3.496026e-03  2.085691e-01 -5.192364e-02  2.019723e-01 -5.192364e-02
 1.550308e-01  1.977969e-02  1.550308e-01 -5.358073e-02  1.441264e-01 -5.358073e-02
 1.145451e-01  3.614506e-02  1.145451e-01 -5.051188e-02  9.624277e-02 -5.051188e-02
 8.572338e-02  4.595818e-02  8.572338e-02 -4.507123e-02  5.661207e-02 -4.507123e-02
 6.736828e-02  4.962732e-02  6.736828e-02 -3.901709e-02  2.352194e-02 -3.901709e-02
 5.841811e-02  4.759332e-02  5.841811e-02 -3.355461e-02 -4.651861e-03 -3.355461e-02
 5.789456e-02  4.031658e-02  5.789456e-02 -2.939296e-02 -2.936678e-02 -2.939296e-02
 6.485770e-02  2.826891e-02  6.485770e-02 -2.681343e-02 -5.185007e-02 -2.681343e-02
 7.837000e-02  1.193010e-02  7.837000e-02 -2.574507e-02 -7.305287e-02 -2.574507e-02
 9.747101e-02 -8.211328e-03  9.747101e-02 -2.584433e-02 -9.362287e-02 -2.584433e-02
 1.211633e-01 -3.165405e-02  1.211633e-01 -2.657530e-02 -1.138961e-01 -2.657530e-02
 1.484095e-01 -5.787748e-02  1.484095e-01 -2.728744e-02 -1.339066e-01 -2.728744e-02
 1.781403e-01 -8.633424e-02  1.781403e-01 -2.728797e-02 -1.534136e-01 -2.728797e-02
 2.092707e-01 -1.164427e-01  2.092707e-01 -2.590659e-02 -1.719424e-01 -2.590659e-02
 2.407245e-01 -1.475811e-01  2.407245e-01 -2.255055e-02 -1.888374e-01 -2.255055e-02
 2.714629e-01 -1.790839e-01  2.714629e-01 -1.674880e-02 -2.033238e-01 -1.674880e-02
 3.005169e-01 -2.102422e-01  3.005169e-01 -8.184259e-03 -2.145732e-01 -8.184259e-03
 3.270187e-01 -2.403077e-01  3.270187e-01  3.285897e-03 -2.217716e-01  3.285897e-03
 3.502319e-01 -2.685025e-01  3.502319e-01  1.762192e-02 -2.241835e-01  1.762192e-02
 3.695768e-01 -2.940323e-01  3.695768e-01  3.460428e-02 -2.212116e-01  3.460428e-02
 3.846499e-01 -3.161055e-01  3.846499e-01  5.384664e-02 -2.124462e-01  5.384664e-02
 3.952358e-01 -3.339558e-01  3.952358e-01  7.481730e-02 -1.977049e-01  7.481730e-02
 4.013106e-01 -3.468678e-01  4.013106e-01  9.686780e-02 -1.770580e-01  9.686780e-02
 4.030365e-01 -3.542047e-01  4.030365e-01  1.192664e-01 -1.508407e-01  1.192664e-01
 4.007479e-01 -3.554369e-01  4.007479e-01  1.412350e-01 -1.196503e-01  1.412350e-01
 3.949298e-01 -3.501692e-01  3.949298e-01  1.619865e-01 -8.432904e-02  1.619865e-01
 3.861883e-01 -3.381660e-01  3.861883e-01  1.807628e-01 -4.593470e-02  1.807628e-01
 3.752174e-01 -3.193719e-01  3.752174e-01  1.968686e-01 -5.698812e-03  1.968686e-01
 3.627612e-01 -2.939277e-01  3.627612e-01  2.097034e-01  3.502395e-02  2.097034e-01
 3.495742e-01 -2.621789e-01  3.495742e-01  2.187860e-01  7.481314e-02  2.187860e-01
 3.363838e-01 -2.246774e-01  3.363838e-01  2.237755e-01  1.122438e-01  2.237755e-01
 3.238533e-01 -1.821738e-01  3.238533e-01  2.244832e-01  1.459484e-01  2.244832e-01
 3.125506e-01 -1.356030e-01  3.125506e-01  2.208794e-01  1.746768e-01  2.208794e-01
 3.029226e-01 -8.606003e-02  3.029226e-01  2.130921e-01  1.973512e-01  2.130921e-01
 2.952762e-01 -3.476878e-02  2.952762e-01  2.013999e-01  2.131131e-01  2.013999e-01
 2.897682e-01  1.695557e-02  2.897682e-01  1.862185e-01  2.213613e-01  1.862185e-01
 2.864034e-01  6.775003e-02  2.864034e-01  1.680816e-01  2.217778e-01  1.680816e-01
 2.850404e-01  1.162506e-01  2.850404e-01  1.476191e-01  2.143418e-01  1.476191e-01
 2.854064e-01  1.611409e-01  2.854064e-01  1.255305e-01  1.993302e-01  1.255305e-01
 2.871184e-01  2.012006e-01  2.871184e-01  1.025575e-01  1.773055e-01  1.025575e-01
 2.897100e-01  2.353514e-01  2.897100e-01  7.945589e-02  1.490917e-01  7.945589e-02
 2.926627e-01  2.626989e-01  2.926627e-01  5.696763e-02  1.157387e-01  5.696763e-02
 2.954394e-01  2.825674e-01  2.954394e-01  3.579486e-02  7.847828e-02  3.579486e-02
 2.975181e-01  2.945280e-01  2.975181e-01  1.657630e-02  3.867205e-02  1.657630e-02
 2.984247e-01  2.984163e-01  2.984247e-01 -1.328112e-04 -2.244291e-03 -1.328112e-04
 2.977621e-01  2.943403e-01  2.977621e-01 -1.387687e-02 -4.281945e-02 -1.387687e-02
 2.952348e-01  2.826778e-01  2.952348e-01 -2.431158e-02 -8.164423e-02 -2.431158e-02
 2.906673e-01  2.640627e-01  2.906673e-01 -3.121098e-02 -1.174063e-01 -3.121098e-02
 2.840153e-01  2.393608e-01  2.840153e-01 -3.446986e-02 -1.489392e-01 -3.446986e-02
 2.753695e-01  2.096371e-01  2.753695e-01 -3.410164e-02 -1.752648e-01 -3.410164e-02
 2.649514e-01  1.761138e-01  2.649514e-01 -3.023217e-02 -1.956252e-01 -3.023217e-02
 2.531013e-01  1.401229e-01  2.531013e-01 -2.308986e-02 -2.095058e-01 -2.308986e-02
 2.402598e-01  1.030545e-01  2.402598e-01 -1.299290e-02 -2.166465e-01 -1.299290e-02
 2.269437e-01  6.630224e-02  2.269437e-01 -3.339754e-04 -2.170423e-01 -3.339754e-04
 2.137166e-01  3.120975e-02  2.137166e-01  1.443635e-02 -2.109321e-01  1.443635e-02
 2.011577e-01 -9.806235e-04  2.011577e-01  3.082728e-02 -1.987792e-01  3.082728e-02
 1.898288e-01 -2.917435e-02  1.898288e-01  4.832534e-02 -1.812415e-01  4.832534e-02
 1.802421e-01 -5.246441e-02  1.802421e-01  6.641147e-02 -1.591358e-01  6.641147e-02
 1.728313e-01 -7.016256e-02  1.728313e-01  8.457681e-02 -1.333965e-01  8.457681e-02
 1.679257e-01 -8.182087e-02  1.679257e-01  1.023369e-01 -1.050312e-01  1.023369e-01
 1.657308e-01 -8.724267e-02  1.657308e-01  1.192435e-01 -7.507584e-02  1.192435e-01
 1.663150e-01 -8.648261e-02  1.663150e-01  1.348948e-01 -4.455124e-02  1.348948e-01
 1.696040e-01 -7.983584e-02  1.696040e-01  1.489421e-01 -1.442235e-02  1.489421e-01
 1.753830e-01 -6.781718e-02  1.753830e-01  1.610950e-01  1.443693e-02  1.610950e-01
 1.833063e-01 -5.113122e-02  1.833063e-01  1.711238e-01  4.127249e-02  1.711238e-01
 1.929140e-01 -3.063494e-02  1.929140e-01  1.788598e-01  6.547136e-02  1.788598e-01
 2.036559e-01 -7.294743e-03  2.036559e-01  1.841938e-01  8.657472e-02  1.841938e-01
 2.149191e-01  1.786006e-02  2.149191e-01  1.870732e-01  1.042826e-01  1.870732e-01
 2.260601e-01  4.378502e-02  2.260601e-01  1.874983e-01  1.184501e-01  1.874983e-01
 2.364383e-01  6.946725e-02  2.364383e-01  1.855168e-01  1.290771e-01  1.855168e-01
 2.454500e-01  9.396906e-02  2.454500e-01  1.812198e-01  1.362898e-01  1.812198e-01
 2.525598e-01  1.164662e-01  2.525598e-01  1.747358e-01  1.403192e-01  1.747358e-01
 2.573292e-01  1.362793e-01  2.573292e-01  1.662269e-01  1.414740e-01  1.662269e-01
 2.594398e-01  1.528971e-01  2.594398e-01  1.558838e-01  1.401134e-01  1.558838e-01
 2.587100e-01  1.659899e-01  2.587100e-01  1.439226e-01  1.366181e-01  1.439226e-01
 2.551048e-01  1.754142e-01  2.551048e-01  1.305820e-01  1.313645e-01  1.305820e-01
 2.487371e-01  1.812074e-01  2.487371e-01  1.161201e-01  1.247004e-01  1.161201e-01
 2.398621e-01  1.835725e-01  2.398621e-01  1.008131e-01  1.169261e-01  1.008131e-01
 2.288628e-01  1.828565e-01  2.288628e-01  8.495326e-02  1.082804e-01  8.495326e-02
 2.162294e-01  1.795204e-01  2.162294e-01  6.884676e-02  9.893286e-02  6.884676e-02
 2.025326e-01  1.741051e-01  2.025326e-01  5.281167e-02  8.898202e-02  5.281167e-02
 1.883927e-01  1.671941e-01  1.883927e-01  3.717498e-02  7.846002e-02  3.717498e-02
 1.744459e-01  1.593751e-01  1.744459e-01  2.226881e-02  6.734290e-02  2.226881e-02
 1.613098e-01  1.512029e-01  1.613098e-01  8.425507e-03  5.556562e-02  8.425507e-03
 1.495500e-01  1.431659e-01  1.495500e-01 -4.028583e-03  4.304090e-02 -4.028583e-03
 1.396497e-01  1.356564e-01  1.396497e-01 -1.478059e-02  2.968030e-02 -1.478059e-02
 1.319837e-01  1.289493e-01  1.319837e-01 -2.353989e-02  1.541627e-02 -2.353989e-02
 1.267991e-01  1.231871e-01  1.267991e-01 -3.004803e-02  2.233966e-04 -3.004803e-02
 1.242025e-01  1.183747e-01  1.242025e-01 -3.408932e-02 -1.586252e-02 -3.408932e-02
 1.241561e-01  1.143816e-01  1.241561e-01 -3.550206e-02 -3.272903e-02 -3.550206e-02
 1.264813e-01  1.109546e-01  1.264813e-01 -3.418947e-02 -5.017646e-02 -3.418947e-02
 1.308713e-01  1.077372e-01  1.308713e-01 -3.013015e-02 -6.791306e-02 -3.013015e-02
 1.369108e-01  1.042963e-01  1.369108e-01 -2.338719e-02 -8.555642e-02 -2.338719e-02
 1.441024e-01  1.001547e-01  1.441024e-01 -1.411538e-02 -1.026416e-01 -1.411538e-02
 1.518983e-01  9.482698e-02  1.518983e-01 -2.565913e-03 -1.186354e-01 -2.565913e-03
 1.597352e-01  8.785671e-02  1.597352e-01  1.091205e-02 -1.329567e-01  1.091205e-02
 1.670714e-01  7.885395e-02  1.670714e-01  2.587336e-02 -1.450016e-01  2.587336e-02
 1.734219e-01  6.752953e-02  1.734219e-01  4.178286e-02 -1.541723e-01  4.178286e-02
 1.783928e-01  5.372500e-02  1.783928e-01  5.802547e-02 -1.599083e-01  5.802547e-02
 1.817095e-01  3.743612e-02  1.817095e-01  7.392039e-02 -1.617178e-01  7.392039e-02
 1.832392e-01  1.882837e-02  1.832392e-01  8.873941e-02 -1.592088e-01  8.873941e-02
 1.830059e-01 -1.756342e-03  1.830059e-01  1.017286e-01 -1.521163e-01  1.017286e-01
 1.811959e-01 -2.380286e-02  1.811959e-01  1.121334e-01 -1.403263e-01  1.121334e-01
 1.781542e-01 -4.663555e-02  1.781542e-01  1.192251e-01 -1.238928e-01  1.192251e-01
 1.743720e-01 -6.944069e-02  1.743720e-01  1.223298e-01 -1.030485e-01  1.223298e-01
 1.704636e-01 -9.129735e-02  1.704636e-01  1.208562e-01 -7.820743e-02  1.208562e-01
 1.671369e-01 -1.112157e-01  1.671369e-01  1.143236e-01 -4.995935e-02  1.143236e-01
 1.651560e-01 -1.281810e-01  1.651560e-01  1.023865e-01 -1.905576e-02  1.023865e-01
 1.652988e-01 -1.412010e-01  1.652988e-01  8.485689e-02  1.361188e-02  8.485689e-02
 1.683128e-01 -1.493547e-01  1.683128e-01  6.172122e-02  4.704115e-02  6.172122e-02
 1.748693e-01 -1.518408e-01  1.748693e-01  3.315183e-02  8.015360e-02  3.315183e-02
 1.855197e-01 -1.480217e-01  1.855197e-01 -4.877852e-04  1.118342e-01 -4.877852e-04
 2.006565e-01 -1.374629e-01  2.006565e-01 -3.864495e-02  1.409737e-01 -3.864495e-02
 2.204808e-01 -1.199641e-01  2.204808e-01 -8.058712e-02  1.665116e-01 -8.058712e-02
 2.449774e-01 -9.558149e-02  2.449774e-01 -1.254187e-01  1.874787e-01 -1.254187e-01
 2.739014e-01 -6.463912e-02  2.739014e-01 -1.721051e-01  2.030360e-01 -1.721051e-01
 3.067747e-01 -2.772871e-02  3.067747e-01 -2.195030e-01  2.125094e-01 -2.195030e-01
 3.428951e-01  1.430210e-02  3.428951e-01 -2.663972e-01  2.154183e-01 -2.663972e-01
 3.813570e-01  6.037305e-02  3.813570e-01 -3.115410e-01  2.114957e-01 -3.115410e-01
 4.210829e-01  1.092055e-01  4.210829e-01 -3.537006e-01  2.007009e-01 -3.537006e-01
 4.608659e-01  1.593662e-01  4.608659e-01 -3.917006e-01  1.832224e-01 -3.917006e-01
 4.994193e-01  2.093185e-01  4.994193e-01 -4.244693e-01  1.594717e-01 -4.244693e-01
 5.354336e-01  2.574797e-01  5.354336e-01 -4.510828e-01  1.300682e-01 -4.510828e-01
 5.676364e-01  3.022814e-01  5.676364e-01 -4.708039e-01  9.581602e-02 -4.708039e-01
 5.948533e-01  3.422308e-01  5.948533e-01 -4.831173e-01  5.767354e-02 -4.831173e-01
 6.160676e-01  3.759698e-01  6.160676e-01 -4.877567e-01  1.671686e-02 -4.877567e-01
 6.304738e-01  4.023301e-01  6.304738e-01 -4.847235e-01 -2.590058e-02 -4.847235e-01
 6.375247e-01  4.203806e-01  6.375247e-01 -4.742975e-01 -6.899084e-02 -4.742975e-01
 6.369679e-01  4.294668e-01  6.369679e-01 -4.570360e-01 -1.113749e-01 -4.570360e-01
 6.288703e-01  4.292386e-01  6.288703e-01 -4.337637e-01 -1.519248e-01 -4.337637e-01
 6.136292e-01  4.196661e-01  6.136292e-01 -4.055516e-01 -1.896022e-01 -4.055516e-01
 5.919686e-01  4.010430e-01  5.919686e-01 -3.736871e-01 -2.234933e-01 -3.736871e-01
 5.649212e-01  3.739767e-01  5.649212e-01 -3.396342e-01 -2.528360e-01 -3.396342e-01
 5.337955e-01  3.393650e-01  5.337955e-01 -3.049865e-01 -2.770421e-01 -3.049865e-01
 5.001297e-01  2.983620e-01  5.001297e-01 -2.714141e-01 -2.957098e-01 -2.714141e-01
 4.656344e-01  2.523327e-01  4.656344e-01 -2.406063e-01 -3.086296e-01 -2.406063e-01
 4.321255e-01  2.027995e-01  4.321255e-01 -2.142119e-01 -3.157817e-01 -2.142119e-01
 4.014503e-01  1.513819e-01  4.014503e-01 -1.937792e-01 -3.173256e-01 -1.937792e-01
 3.754108e-01  9.973261e-02  3.754108e-01 -1.806986e-01 -3.135836e-01 -1.806986e-01
 3.556859e-01  4.947295e-02  3.556859e-01 -1.761489e-01 -3.050187e-01 -1.761489e-01
 3.437571e-01  2.128992e-03  3.437571e-01 -1.810504e-01 -2.922074e-01 -1.810504e-01
 3.408407e-01 -4.092733e-02  3.408407e-01 -1.960257e-01 -2.758102e-01 -1.960257e-01
 3.478292e-01 -7.853054e-02  3.478292e-01 -2.213700e-01 -2.565412e-01 -2.213700e-01
 3.652448e-01 -1.097649e-01  3.652448e-01 -2.570334e-01 -2.351367e-01 -2.570334e-01
 3.932081e-01 -1.339970e-01  3.932081e-01 -3.026133e-01 -2.123266e-01 -3.026133e-01
 4.314213e-01 -1.508958e-01  4.314213e-01 -3.573604e-01 -1.888078e-01 -3.573604e-01
 4.791699e-01 -1.604402e-01  4.791699e-01 -4.201957e-01 -1.652221e-01 -4.201957e-01
 5.353406e-01 -1.629127e-01  5.353406e-01 -4.897403e-01 -1.421391e-01 -4.897403e-01
 5.984563e-01 -1.588809e-01  5.984563e-01 -5.643547e-01 -1.200435e-01 -5.643547e-01
 6.667261e-01 -1.491664e-01  6.667261e-01 -6.421891e-01 -9.932943e-02 -6.421891e-01
 7.381099e-01 -1.348026e-01  7.381099e-01 -7.212397e-01 -8.029854e-02 -7.212397e-01
 8.103925e-01 -1.169851e-01  8.103925e-01 -7.994128e-01 -6.316463e-02 -7.994128e-01
 8.812671e-01 -9.701349e-02  8.812671e-01 -8.745914e-01 -4.806179e-02 -8.745914e-01
 9.484225e-01 -7.623105e-02  9.484225e-01 -9.447037e-01 -3.505634e-02 -9.447037e-01
 1.009632e+00 -5.596161e-02  1.009632e+00 -1.007791e+00 -2.416123e-02 -1.007791e+00
 1.062841e+00 -3.744843e-02  1.062841e+00 -1.062070e+00 -1.535167e-02 -1.062070e+00
 1.106244e+00 -2.179701e-02  1.106244e+00 -1.105996e+00 -8.580933e-03 -1.105996e+00
 1.138358e+00 -9.924337e-03  1.138358e+00 -1.138309e+00 -3.795117e-03 -1.138309e+00
 1.158081e+00 -2.517038e-03  1.158081e+00 -1.158078e+00 -9.458454e-04 -1.158078e+00
 1.164731e+00  0.000000e+00  1.164731e+00 -1.164731e+00  0.000000e+00 -1.164731e+00

 1.291590e+01  0.000000e+00  1.291590e+01  1.291590e+01  0.000000e+00  1.291590e+01
 1.288783e+01 -9.634801e-04  1.288783e+01  1.288783e+01  6.488411e-03  1.288783e+01
 1.280393e+01 -3.801949e-03  1.280393e+01  1.280391e+01  2.581187e-02  1.280391e+01
 1.266519e+01 -8.361404e-03  1.266519e+01  1.266505e+01  5.754830e-02  1.266505e+01
 1.247319e+01 -1.439147e-02  1.247319e+01  1.247277e+01  1.010049e-01  1.247277e+01
 1.223014e+01 -2.155460e-02  1.223014e+01  1.222914e+01  1.552340e-01  1.222914e+01
 1.193881e+01 -2.943856e-02  1.193881e+01  1.193676e+01  2.190542e-01  1.193676e+01
 1.160247e+01 -3.757158e-02  1.160247e+01  1.159876e+01  2.910779e-01  1.159876e+01
 1.122487e+01 -4.543992e-02  1.122487e+01  1.121868e+01  3.697416e-01  1.121868e+01
 1.081014e+01 -5.250698e-02  1.081014e+01  1.080050e+01  4.533417e-01  1.080050e+01
 1.036276e+01 -5.823336e-02  1.036276e+01  1.034851e+01  5.400724e-01  1.034851e+01
 9.887441e+00 -6.209731e-02  9.887441e+00  9.867278e+00  6.280656e-01  9.867278e+00
 9.389105e+00 -6.361463e-02  9.389105e+00  9.361592e+00  7.154325e-01  9.361592e+00
 8.872762e+00 -6.235750e-02  8.872762e+00  8.836375e+00  8.003042e-01  8.836375e+00
 8.343459e+00 -5.797152e-02  8.343459e+00  8.296626e+00  8.808727e-01  8.296626e+00
 7.806200e+00 -5.019041e-02  7.806200e+00  7.747347e+00  9.554291e-01  7.747347e+00
 7.265874e+00 -3.884776e-02  7.265874e+00  7.193478e+00  1.022400e+00  7.193478e+00
 6.727196e+00 -2.388565e-02  6.727196e+00  6.639833e+00  1.080378e+00  6.639833e+00
 6.194639e+00 -5.359595e-03  6.194639e+00  6.091042e+00  1.128153e+00  6.091042e+00
 5.672385e+00  1.656015e-02  5.672385e+00  5.551493e+00  1.164733e+00  5.551493e+00
 5.164283e+00  4.159110e-02  5.164283e+00  5.025286e+00  1.189363e+00  5.025286e+00
 4.673802e+00  6.934465e-02  4.673802e+00  4.516185e+00  1.201536e+00  4.516185e+00
 4.204012e+00  9.933567e-02  4.204012e+00  4.027585e+00  1.201004e+00  4.027585e+00
 3.757556e+00  1.309953e-01  3.757556e+00  3.562480e+00  1.187773e+00  3.562480e+00
 3.336643e+00  1.636861e-01  3.336643e+00  3.123445e+00  1.162102e+00  3.123445e+00
 2.943038e+00  1.967202e-01  2.943038e+00  2.712617e+00  1.124491e+00  2.712617e+00
 2.578071e+00  2.293778e-01  2.578071e+00  2.331688e+00  1.075669e+00  2.331688e+00
 2.242645e+00  2.609279e-01  2.242645e+00  1.981909e+00  1.016567e+00  1.981909e+00
 1.937254e+00  2.906488e-01  1.937254e+00  1.664092e+00  9.483001e-01  1.664092e+00
 1.662005e+00  3.178480e-01  1.662005e+00  1.378626e+00  8.721370e-01  1.378626e+00
 1.416646e+00  3.418819e-01  1.416646e+00  1.125495e+00  7.894707e-01  1.125495e+00
 1.200598e+00  3.621733e-01  1.200598e+00  9.043026e-01  7.017863e-01  9.043026e-01
 1.012989e+00  3.782272e-01  1.012989e+00  7.143004e-01  6.106276e-01  7.143004e-01
 8.526888e-01  3.896444e-01  8.526888e-01  5.544213e-01  5.175640e-01  5.544213e-01
 7.183484e-01  3.961314e-01  7.183484e-01  4.233142e-01  4.241573e-01  4.233142e-01
 6.084367e-01  3.975080e-01  6.084367e-01  3.193819e-01  3.319303e-01  3.193819e-01
 5.212777e-01  3.937115e-01  5.212777e-01  2.408207e-01  2.423368e-01  2.408207e-01
 4.550866e-01  3.847970e-01  4.550866e-01  1.856592e-01  1.567347e-01  1.856592e-01
 4.080035e-01  3.709351e-01  4.080035e-01  1.517989e-01  7.636146e-02  1.517989e-01
 3.781254e-01  3.524063e-01  3.781254e-01  1.370521e-01  2.313957e-03  1.370521e-01
 3.635361e-01  3.295925e-01  3.635361e-01  1.391800e-01 -6.446866e-02  1.391800e-01
 3.623316e-01  3.029658e-01  3.623316e-01  1.559276e-01 -1.232175e-01  1.559276e-01
 3.726443e-01  2.730754e-01  3.726443e-01  1.850569e-01 -1.733424e-01  1.850569e-01
 3.926627e-01  2.405328e-01  3.926627e-01  2.243770e-01 -2.144363e-01  2.243770e-01
 4.206486e-01  2.059957e-01  4.206486e-01  2.717710e-01 -2.462753e-01  2.717710e-01
 4.549516e-01  1.701510e-01  4.549516e-01  3.252199e-01 -2.688152e-01  3.252199e-01
 4.940197e-01  1.336982e-01  4.940197e-01  3.828221e-01 -2.821835e-01  3.828221e-01
 5.364085e-01  9.733219e-02  5.364085e-01  4.428106e-01 -2.866693e-01  4.428106e-01
 5.807867e-01  6.172742e-02  5.807867e-01  5.035656e-01 -2.827094e-01  5.035656e-01
 6.259406e-01  2.752317e-02  6.259406e-01  5.636244e-01 -2.708719e-01  5.636244e-01
 6.707755e-01 -4.689961e-03  6.707755e-01  6.216872e-01 -2.518390e-01  6.216872e-01
 7.143167e-01 -3.438158e-02  7.143167e-01  6.766206e-01 -2.263864e-01  6.766206e-01
 7.557079e-01 -6.109102e-02  7.557079e-01  7.274580e-01 -1.953643e-01  7.274580e-01
 7.942092e-01 -8.443467e-02  7.942092e-01  7.733969e-01 -1.596754e-01  7.733969e-01
 8.291938e-01 -1.041110e-01  8.291938e-01  8.137948e-01 -1.202550e-01  8.137948e-01
 8.601445e-01 -1.199034e-01  8.601445e-01  8.481626e-01 -7.805108e-02  8.481626e-01
 8.866485e-01 -1.316808e-01  8.866485e-01  8.761560e-01 -3.400463e-02  8.761560e-01
 9.083929e-01 -1.393956e-01  9.083929e-01  8.975669e-01  1.096744e-02  8.975669e-01
 9.251596e-01 -1.430810e-01  9.251596e-01  9.123121e-01  5.598849e-02  9.123121e-01
 9.368191e-01 -1.428450e-01  9.368191e-01  9.204228e-01  1.002361e-01  9.204228e-01
 9.433254e-01 -1.388643e-01  9.433254e-01  9.220323e-01  1.429540e-01  9.220323e-01
 9.447095e-01 -1.313760e-01  9.447095e-01  9.173649e-01  1.834615e-01  9.173649e-01
 9.410741e-01 -1.206692e-01  9.410741e-01  9.067234e-01  2.211610e-01  9.067234e-01
 9.325868e-01 -1.070754e-01  9.325868e-01  8.904780e-01  2.555427e-01  8.904780e-01
 9.194742e-01 -9.095925e-02  9.194742e-01  8.690547e-01  2.861874e-01  8.690547e-01
 9.020156e-01 -7.270873e-02  9.020156e-01  8.429248e-01  3.127673e-01  8.429248e-01
 8.805364e-01 -5.272591e-02  8.805364e-01  8.125945e-01  3.350440e-01  8.125945e-01
 8.554017e-01 -3.141817e-02  8.554017e-01  7.785952e-01  3.528661e-01  7.785952e-01
 8.270100e-01 -9.190020e-03  8.270100e-01  7.414750e-01  3.661637e-01  7.414750e-01
 7.957862e-01  1.356410e-02  7.957862e-01  7.017901e-01  3.749429e-01  7.017901e-01
 7.621753e-01  3.646615e-02  7.621753e-01  6.600976e-01  3.792789e-01  6.600976e-01
 7.266359e-01  5.915972e-02  7.266359e-01  6.169485e-01  3.793079e-01  6.169485e-01
 6.896337e-01  8.131418e-02  6.896337e-01  5.728817e-01  3.752189e-01  5.728817e-01
 6.516350e-01  1.026278e-01  6.516350e-01  5.284186e-01  3.672459e-01  5.284186e-01
 6.131009e-01  1.228296e-01  6.131009e-01  4.840581e-01  3.556590e-01  4.840581e-01
 5.744810e-01  1.416806e-01  5.744810e-01  4.402725e-01  3.407567e-01  4.402725e-01
 5.362083e-01  1.589741e-01  5.362083e-01  3.975036e-01  3.228583e-01  3.975036e-01
 4.986939e-01  1.745346e-01  4.986939e-01  3.561597e-01  3.022971e-01  3.561597e-01
 4.623218e-01  1.882171e-01  4.623218e-01  3.166129e-01  2.794138e-01  3.166129e-01
 4.274454e-01  1.999051e-01  4.274454e-01  2.791966e-01  2.545521e-01  2.791966e-01
 3.943831e-01  2.095089e-01  3.943831e-01  2.442043e-01  2.280533e-01  2.442043e-01
 3.634154e-01  2.169628e-01  3.634154e-01  2.118877e-01  2.002537e-01  2.118877e-01
 3.347827e-01  2.222234e-01  3.347827e-01  1.824563e-01  1.714815e-01  1.824563e-01
 3.086827e-01  2.252674e-01  3.086827e-01  1.560766e-01  1.420553e-01  1.560766e-01
 2.852697e-01  2.260892e-01  2.852697e-01  1.328723e-01  1.122828e-01  1.328723e-01
 2.646539e-01  2.246996e-01  2.646539e-01  1.129247e-01  8.246105e-02  1.129247e-01
 2.469014e-01  2.211243e-01  2.469014e-01  9.627301e-02  5.287586e-02  9.627301e-02
 2.320348e-01  2.154030e-01  2.320348e-01  8.291623e-02  2.380279e-02  8.291623e-02
 2.200348e-01  2.075891e-01  2.200348e-01  7.281404e-02 -4.492299e-03  7.281404e-02
 2.108420e-01  1.977493e-01  2.108420e-01  6.588893e-02 -3.175247e-02  6.588893e-02
 2.043594e-01  1.859640e-01  2.043594e-01  6.202827e-02 -5.772903e-02  6.202827e-02
 2.004555e-01  1.723284e-01  2.004555e-01  6.108678e-02 -8.218110e-02  6.108678e-02
 1.989675e-01  1.569526e-01  1.989675e-01  6.288917e-02 -1.048755e-01  6.288917e-02
 1.997055e-01  1.399636e-01  1.997055e-01  6.723303e-02 -1.255873e-01  6.723303e-02
 2.024564e-01  1.215058e-01  2.024564e-01  7.389186e-02 -1.441004e-01  7.389186e-02
 2.069886e-01  1.017423e-01  2.069886e-01  8.261821e-02 -1.602094e-01  8.261821e-02
 2.130566e-01  8.085606e-02  2.130566e-01  9.314690e-02 -1.737213e-01  9.314690e-02
 2.204056e-01  5.905034e-02  2.204056e-01  1.051983e-01 -1.844587e-01  1.051983e-01
 2.287763e-01  3.654890e-02  2.287763e-01  1.184816e-01 -1.922625e-01  1.184816e-01
 2.379097e-01  1.359581e-02  2.379097e-01  1.326980e-01 -1.969960e-01  1.326980e-01
 2.475518e-01 -9.545582e-03  2.475518e-01  1.475439e-01 -1.985487e-01  1.475439e-01
 2.574577e-01 -3.259421e-02  2.574577e-01  1.627139e-01 -1.968407e-01  1.627139e-01
 2.673956e-01 -5.525373e-02  2.673956e-01  1.779040e-01 -1.918269e-01  1.779040e-01
 2.771506e-01 -7.721570e-02  2.771506e-01  1.928145e-01 -1.835014e-01  1.928145e-01
 2.865281e-01 -9.816355e-02  2.865281e-01  2.071526e-01 -1.719014e-01  2.071526e-01
 2.953560e-01 -1.177773e-01  2.953560e-01  2.206353e-01 -1.571105e-01  2.206353e-01
 3.034870e-01 -1.357391e-01  3.034870e-01  2.329922e-01 -1.392618e-01  2.329922e-01
 3.108002e-01 -1.517391e-01  3.108002e-01  2.439679e-01 -1.185398e-01  2.439679e-01
 3.172021e-01 -1.654820e-01  3.172021e-01  2.533248e-01 -9.518114e-02  2.533248e-01
 3.226264e-01 -1.766941e-01  3.226264e-01  2.608453e-01 -6.947476e-02  2.608453e-01
 3.270339e-01 -1.851298e-01  3.270339e-01  2.663347e-01 -4.176040e-02  2.663347e-01
 3.304114e-01 -1.905791e-01  3.304114e-01  2.696236e-01 -1.242586e-02  2.696236e-01
 3.327702e-01 -1.928739e-01  3.327702e-01  2.705701e-01  1.809699e-02  2.705701e-01
 3.341439e-01 -1.918943e-01  3.341439e-01  2.690623e-01  4.933767e-02  2.690623e-01
 3.345858e-01 -1.875742e-01  3.345858e-01  2.650207e-01  8.079377e-02  2.650207e-01
 3.341661e-01 -1.799055e-01  3.341661e-01  2.584001e-01  1.119389e-01  2.584001e-01
 3.329684e-01 -1.689423e-01  3.329684e-01  2.491919e-01  1.422318e-01  2.491919e-01
 3.310871e-01 -1.548023e-01  3.310871e-01  2.374254e-01  1.711260e-01  2.374254e-01
 3.286228e-01 -1.376680e-01  3.286228e-01  2.231692e-01  1.980808e-01  2.231692e-01
 3.256800e-01 -1.177863e-01  3.256800e-01  2.065323e-01  2.225720e-01  2.065323e-01
 3.223634e-01 -9.546513e-02  3.223634e-01  1.876646e-01  2.441036e-01  1.876646e-01
 3.187748e-01 -7.107058e-02  3.187748e-01  1.667563e-01  2.622188e-01  1.667563e-01
 3.150107e-01 -4.502060e-02  3.150107e-01  1.440374e-01  2.765107e-01  1.440374e-01
 3.111601e-01 -1.777812e-02  3.111601e-01  1.197758e-01  2.866327e-01  1.197758e-01
 3.073026e-01  1.015745e-02  3.073026e-01  9.427554e-02  2.923078e-01  9.427554e-02
 3.035073e-01  3.825994e-02  3.035073e-01  6.787275e-02  2.933363e-01  6.787275e-02
 2.998322e-01  6.598723e-02  2.998322e-01  4.093212e-02  2.896025e-01  4.093212e-02
 2.963238e-01  9.279266e-02  2.963238e-01  1.384174e-02  2.810795e-01  1.384174e-02
 2.930177e-01  1.181370e-01  2.930177e-01 -1.299262e-02  2.678325e-01 -1.299262e-02
 2.899396e-01  1.415005e-01  2.899396e-01 -3.915409e-02  2.500190e-01 -3.915409e-02
 2.871060e-01  1.623949e-01  2.871060e-01 -6.422187e-02  2.278888e-01 -6.422187e-02
 2.845266e-01  1.803747e-01  2.845266e-01 -8.777907e-02  2.017802e-01 -8.777907e-02
 2.822055e-01  1.950476e-01  2.822055e-01 -1.094208e-01  1.721147e-01 -1.094208e-01
 2.801433e-01  2.060842e-01  2.801433e-01 -1.287627e-01  1.393906e-01 -1.287627e-01
 2.783394e-01  2.132259e-01  2.783394e-01 -1.454492e-01  1.041733e-01 -1.454492e-01
 2.767935e-01  2.162907e-01  2.767935e-01 -1.591620e-01  6.708507e-02 -1.591620e-01
 2.755078e-01  2.151785e-01  2.755078e-01 -1.696282e-01  2.879287e-02 -1.696282e-01
 2.744881e-01  2.098727e-01  2.744881e-01 -1.766269e-01 -1.000457e-02 -1.766269e-01
 2.737450e-01  2.004409e-01  2.737450e-01 -1.799964e-01 -4.859086e-02 -1.799964e-01
 2.732951e-01  1.870331e-01  2.732951e-01 -1.796395e-01 -8.624631e-02 -1.796395e-01
 2.731603e-01  1.698778e-01  2.731603e-01 -1.755276e-01 -1.222626e-01 -1.755276e-01
 2.733685e-01  1.492759e-01  2.733685e-01 -1.677035e-01 -1.559570e-01 -1.677035e-01
 2.739526e-01  1.255933e-01  2.739526e-01 -1.562832e-01 -1.866867e-01 -1.562832e-01
 2.749493e-01  9.925178e-02  2.749493e-01 -1.414554e-01 -2.138610e-01 -1.414554e-01
 2.763975e-01  7.071800e-02  2.763975e-01 -1.234795e-01 -2.369543e-01 -1.234795e-01
 2.783370e-01  4.049237e-02  2.783370e-01 -1.026824e-01 -2.555155e-01 -1.026824e-01
 2.808060e-01  9.096621e-03  2.808060e-01 -7.945328e-02 -2.691773e-01 -7.945328e-02
 2.838392e-01 -2.293863e-02  2.838392e-01 -5.423669e-02 -2.776633e-01 -5.423669e-02
 2.874655e-01 -5.508634e-02  2.874655e-01 -2.752479e-02 -2.807922e-01 -2.752479e-02
 2.917061e-01 -8.683504e-02  2.917061e-01  1.521057e-04 -2.784817e-01  1.521057e-04
 2.965726e-01 -1.177001e-01  2.965726e-01  2.823579e-02 -2.707485e-01  2.823579e-02
 3.020659e-01 -1.472339e-01  3.020659e-01  5.615127e-02 -2.577072e-01  5.615127e-02
 3.081744e-01 -1.750348e-01  3.081744e-01  8.331831e-02 -2.395671e-01  8.331831e-02
 3.148743e-01 -2.007538e-01  3.148743e-01  1.091633e-01 -2.166266e-01  1.091633e-01
 3.221289e-01 -2.241010e-01  3.221289e-01  1.331309e-01 -1.892669e-01  1.331309e-01
 3.298897e-01 -2.448484e-01  3.298897e-01  1.546955e-01 -1.579424e-01  1.546955e-01
 3.380974e-01 -2.628322e-01  3.380974e-01  1.733718e-01 -1.231718e-01  1.733718e-01
 3.466833e-01 -2.779522e-01  3.466833e-01  1.887247e-01 -8.552681e-02  1.887247e-01
 3.555720e-01 -2.901706e-01  3.555720e-01  2.003778e-01 -4.562016e-02  2.003778e-01
 3.646837e-01 -2.995076e-01  3.646837e-01  2.080208e-01 -4.093737e-03  2.080208e-01
 3.739374e-01 -3.060372e-01  3.739374e-01  2.114150e-01  3.839412e-02  2.114150e-01
 3.832535e-01 -3.098804e-01  3.832535e-01  2.103973e-01  8.118102e-02  2.103973e-01
 3.925575e-01 -3.111983e-01  3.925575e-01  2.048826e-01  1.236127e-01  2.048826e-01
 4.017827e-01 -3.101843e-01  4.017827e-01  1.948641e-01  1.650545e-01  1.948641e-01
 4.108731e-01 -3.070557e-01  4.108731e-01  1.804119e-01  2.049026e-01  1.804119e-01
 4.197859e-01 -3.020454e-01  4.197859e-01  1.616704e-01  2.425933e-01  1.616704e-01
 4.284934e-01 -2.953942e-01  4.284934e-01  1.388530e-01  2.776126e-01  1.388530e-01
 4.369842e-01 -2.873431e-01  4.369842e-01  1.122364e-01  3.095029e-01  1.122364e-01
 4.452636e-01 -2.781266e-01  4.452636e-01  8.215344e-02  3.378699e-01  8.215344e-02
 4.533540e-01 -2.679665e-01  4.533540e-01  4.898418e-02  3.623870e-01  4.898418e-02
 4.612936e-01 -2.570679e-01  4.612936e-01  1.314717e-02  3.827989e-01  1.314717e-02
 4.691344e-01 -2.456150e-01  4.691344e-01 -2.491048e-02  3.989234e-01 -2.491048e-02
 4.769406e-01 -2.337691e-01  4.769406e-01 -6.472300e-02  4.106522e-01 -6.472300e-02
 4.847844e-01 -2.216674e-01  4.847844e-01 -1.058161e-01  4.179503e-01 -1.058161e-01
 4.927437e-01 -2.094235e-01  4.927437e-01 -1.477165e-01  4.208538e-01 -1.477165e-01
 5.008967e-01 -1.971280e-01  5.008967e-01 -1.899614e-01  4.194671e-01 -1.899614e-01
 5.093188e-01 -1.848512e-01  5.093188e-01 -2.321072e-01  4.139589e-01 -2.321072e-01
 5.180778e-01 -1.726457e-01  5.180778e-01 -2.737365e-01  4.045571e-01 -2.737365e-01
 5.272296e-01 -1.605498e-01  5.272296e-01 -3.144655e-01  3.915435e-01 -3.144655e-01
 5.368145e-01 -1.485917e-01  5.368145e-01 -3.539488e-01  3.752474e-01 -3.539488e-01
 5.468538e-01 -1.367932e-01  5.468538e-01 -3.918838e-01  3.560391e-01 -3.918838e-01
 5.573470e-01 -1.251733e-01  5.573470e-01 -4.280134e-01  3.343230e-01 -4.280134e-01
 5.682697e-01 -1.137523e-01  5.682697e-01 -4.621275e-01  3.105303e-01 -4.621275e-01
 5.795725e-01 -1.025547e-01  5.795725e-01 -4.940628e-01  2.851119e-01 -4.940628e-01
 5.911809e-01 -9.161134e-02  5.911809e-01 -5.237020e-01  2.585314e-01 -5.237020e-01
 6.029960e-01 -8.096191e-02  6.029960e-01 -5.509711e-01  2.312579e-01 -5.509711e-01
 6.148964e-01 -7.065537e-02  6.148964e-01 -5.758364e-01  2.037593e-01 -5.758364e-01
 6.267410e-01 -6.075041e-02  6.267410e-01 -5.982999e-01  1.764960e-01 -5.982999e-01
 6.383722e-01 -5.131478e-02  6.383722e-01 -6.183943e-01  1.499145e-01 -6.183943e-01
 6.496208e-01 -4.242397e-02  6.496208e-01 -6.361774e-01  1.244418e-01 -6.361774e-01
 6.603106e-01 -3.415919e-02  6.603106e-01 -6.517261e-01  1.004805e-01 -6.517261e-01
 6.702637e-01 -2.660488e-02  6.702637e-01 -6.651305e-01  7.840332e-02 -6.651305e-01
 6.793062e-01 -1.984577e-02  6.793062e-01 -6.764873e-01  5.854944e-02 -6.764873e-01
 6.872736e-01 -1.396378e-02  6.872736e-01 -6.858942e-01  4.122039e-02 -6.858942e-01
 6.940162e-01 -9.034868e-03  6.940162e-01 -6.934445e-01  2.667684e-02 -6.934445e-01
 6.994042e-01 -5.125999e-03  6.994042e-01 -6.992216e-01  1.513583e-02 -6.992216e-01
 7.033316e-01 -2.292394e-03  7.033316e-01 -7.032953e-01  6.768507e-03 -7.032953e-01
 7.057201e-01 -5.752487e-04  7.057201e-01 -7.057178e-01  1.698364e-03 -7.057178e-01
 7.065216e-01  0.000000e+00  7.065216e-01 -7.065216e-01  0.000000e+00 -7.065216e-01

